CLT02
Position Depot: Center
Horizon for Depot: Large
Position of customers: Cluster
Distribution of the demand: Large
Width of time windows: Tight
Distribution of the service: Small

VEHICLE 
NUMBER 	 CAPACITY 
 5 	 	 508 
 
CUSTOMER
CUST NO. 	 XCOORD.  	 YCOORD. 	 DEMAND 	 READY TIME 	 DUE DATE 	 SERVICE TIME 
 0 	 	 500 	 	 500 	 	 0 	 	 0 	 	 2678 	 	 0 
  1 	 	 145 	 	 785 	 	 88 	 	 1959 	 	 2055 	 	 68 
  2 	 	 60 	 	 254 	 	 51 	 	 2350 	 	 2404 	 	 81 
  3 	 	 584 	 	 270 	 	 22 	 	 1457 	 	 1575 	 	 52 
  4 	 	 171 	 	 285 	 	 83 	 	 1743 	 	 1916 	 	 58 
  5 	 	 616 	 	 265 	 	 89 	 	 2391 	 	 2588 	 	 79 
  6 	 	 571 	 	 268 	 	 19 	 	 818 	 	 933 	 	 53 
  7 	 	 607 	 	 222 	 	 75 	 	 728 	 	 913 	 	 84 
  8 	 	 115 	 	 173 	 	 76 	 	 2524 	 	 2678 	 	 71 
  9 	 	 63 	 	 220 	 	 73 	 	 1056 	 	 1167 	 	 60 
  10 	 	 16 	 	 119 	 	 94 	 	 1606 	 	 1662 	 	 97 
  11 	 	 268 	 	 826 	 	 80 	 	 409 	 	 501 	 	 84 
  12 	 	 185 	 	 105 	 	 29 	 	 1038 	 	 1093 	 	 98 
  13 	 	 188 	 	 791 	 	 39 	 	 780 	 	 858 	 	 67 
  14 	 	 78 	 	 781 	 	 12 	 	 674 	 	 769 	 	 50 
  15 	 	 198 	 	 800 	 	 59 	 	 351 	 	 468 	 	 65 
  16 	 	 164 	 	 810 	 	 14 	 	 2535 	 	 2661 	 	 87 
  17 	 	 124 	 	 285 	 	 83 	 	 2554 	 	 2678 	 	 61 
  18 	 	 34 	 	 275 	 	 12 	 	 1273 	 	 1399 	 	 55 
  19 	 	 633 	 	 438 	 	 38 	 	 1693 	 	 1862 	 	 54 
  20 	 	 45 	 	 283 	 	 13 	 	 2521 	 	 2649 	 	 57 
  21 	 	 643 	 	 340 	 	 44 	 	 1448 	 	 1560 	 	 50 
  22 	 	 164 	 	 753 	 	 52 	 	 567 	 	 642 	 	 89 
  23 	 	 99 	 	 213 	 	 33 	 	 370 	 	 542 	 	 56 
  24 	 	 102 	 	 849 	 	 8 	 	 432 	 	 587 	 	 85 
  25 	 	 154 	 	 771 	 	 48 	 	 1160 	 	 1236 	 	 75 
  26 	 	 62 	 	 697 	 	 21 	 	 2410 	 	 2609 	 	 69 
  27 	 	 205 	 	 843 	 	 100 	 	 858 	 	 982 	 	 75 
  28 	 	 562 	 	 163 	 	 80 	 	 1588 	 	 1646 	 	 90 
  29 	 	 504 	 	 319 	 	 77 	 	 769 	 	 946 	 	 51 
  30 	 	 19 	 	 171 	 	 79 	 	 1209 	 	 1352 	 	 79 
  31 	 	 15 	 	 309 	 	 20 	 	 520 	 	 573 	 	 52 
  32 	 	 199 	 	 724 	 	 5 	 	 944 	 	 1143 	 	 63 
  33 	 	 662 	 	 195 	 	 87 	 	 1150 	 	 1318 	 	 88 
  34 	 	 75 	 	 633 	 	 11 	 	 2215 	 	 2360 	 	 50 
  35 	 	 30 	 	 776 	 	 40 	 	 919 	 	 1097 	 	 68 
  36 	 	 494 	 	 274 	 	 98 	 	 936 	 	 1096 	 	 65 
  37 	 	 595 	 	 212 	 	 46 	 	 888 	 	 1026 	 	 62 
  38 	 	 59 	 	 240 	 	 67 	 	 1128 	 	 1276 	 	 51 
  39 	 	 44 	 	 333 	 	 52 	 	 1269 	 	 1397 	 	 82 
  40 	 	 100 	 	 252 	 	 21 	 	 1389 	 	 1446 	 	 71 
  41 	 	 676 	 	 262 	 	 18 	 	 2443 	 	 2511 	 	 51 
  42 	 	 201 	 	 619 	 	 85 	 	 612 	 	 688 	 	 70 
  43 	 	 148 	 	 804 	 	 51 	 	 1648 	 	 1711 	 	 55 
  44 	 	 137 	 	 840 	 	 32 	 	 1117 	 	 1304 	 	 91 
  45 	 	 604 	 	 281 	 	 25 	 	 2428 	 	 2493 	 	 59 
  46 	 	 64 	 	 827 	 	 75 	 	 1284 	 	 1415 	 	 75 
  47 	 	 620 	 	 230 	 	 33 	 	 2266 	 	 2388 	 	 90 
  48 	 	 250 	 	 751 	 	 10 	 	 960 	 	 1110 	 	 98 
  49 	 	 221 	 	 750 	 	 92 	 	 1915 	 	 2007 	 	 84 
  50 	 	 54 	 	 256 	 	 78 	 	 1497 	 	 1628 	 	 82 
 